NAME : census.pruned_global_4.-43953350.tour
COMMENT : Length = -43953350
TYPE : TOUR
DIMENSION : 68
TOUR_SECTION
65
61
59
57
55
51
48
46
45
44
43
42
41
38
31
29
26
24
23
22
21
20
19
18
17
16
15
14
13
12
11
10
7
5
4
6
35
25
28
30
36
40
2
39
50
3
1
54
66
27
33
34
37
52
47
32
9
8
63
67
64
49
53
56
58
60
62
68
-1
EOF
